p wcnf 106 159 160 
1 -55 13 0 
1 -106 49 0 
1 -26 -93 0 
1 50 -76 0 
1 -26 83 0 
1 21 -14 0 
1 90 95 0 
1 -71 -55 0 
1 -34 35 0 
1 8 17 0 
1 -12 23 0 
1 36 64 0 
1 80 94 0 
1 30 -16 0 
1 48 50 0 
1 67 23 0 
1 -70 -43 0 
1 60 93 0 
1 -63 -70 0 
1 -40 -45 0 
1 -79 75 0 
1 -10 42 0 
1 -9 106 0 
1 62 -80 0 
1 -106 85 0 
1 50 -51 0 
1 -41 -50 0 
1 -80 -14 0 
1 -16 -92 0 
1 -47 54 0 
1 12 -63 0 
1 72 74 0 
1 85 48 0 
1 85 -3 0 
1 -105 -50 0 
1 6 -19 0 
1 -96 -75 0 
1 104 48 0 
1 10 22 0 
1 -86 -32 0 
1 -79 85 0 
1 35 54 0 
1 68 -26 0 
1 101 -3 0 
1 89 -38 0 
1 -14 -25 0 
1 14 -82 0 
1 -29 32 0 
1 3 -92 0 
1 -31 25 0 
1 -49 98 0 
1 -100 86 0 
1 -4 -78 0 
1 18 75 0 
1 4 71 0 
1 34 -46 0 
1 86 27 0 
1 78 28 0 
1 -93 66 0 
1 15 -46 0 
1 -36 21 0 
1 -43 86 0 
1 -60 -47 0 
1 52 88 0 
1 69 7 0 
1 47 -63 0 
1 75 -64 0 
1 -92 -88 0 
1 94 7 0 
1 -45 -6 0 
1 -17 -73 0 
1 44 82 0 
1 86 -72 0 
1 82 50 0 
1 -83 103 0 
1 -14 8 0 
1 -75 -16 0 
1 -23 -76 0 
1 -64 -5 0 
1 13 -76 0 
1 -76 -99 0 
1 -15 104 0 
1 33 29 0 
1 51 9 0 
1 18 56 0 
1 28 -62 0 
1 76 -75 0 
1 -17 -20 0 
1 -19 26 0 
1 -104 49 0 
1 -92 20 0 
1 106 -70 0 
1 -6 -3 0 
1 15 52 0 
1 30 15 0 
1 -61 -89 0 
1 74 42 0 
1 10 84 0 
1 -102 90 0 
1 -106 67 0 
1 -16 13 0 
1 -27 39 0 
1 81 70 0 
1 91 10 0 
1 -78 -19 0 
1 -82 32 0 
1 105 -50 0 
1 -101 -25 0 
1 -34 -9 0 
1 71 -26 0 
1 77 87 0 
1 -49 45 0 
1 88 45 0 
1 55 37 0 
1 -4 -2 0 
1 39 -46 0 
1 53 28 0 
1 -41 35 0 
1 100 68 0 
1 63 -60 0 
1 -28 21 0 
1 -46 83 0 
1 -13 70 0 
1 22 -4 0 
1 81 50 0 
1 -61 91 0 
1 -63 -9 0 
1 -7 63 0 
1 77 -63 0 
1 -64 11 0 
1 103 -57 0 
1 -48 -9 0 
1 64 -35 0 
1 72 -51 0 
1 -15 -101 0 
1 69 42 0 
1 -47 -61 0 
1 74 -101 0 
1 -10 70 0 
1 -106 -90 0 
1 19 85 0 
1 -99 33 0 
1 64 -37 0 
1 39 -30 0 
1 54 40 0 
1 54 -5 0 
1 20 80 0 
1 19 -18 0 
1 38 -71 0 
1 16 101 0 
1 71 69 0 
1 -71 32 0 
1 26 -58 0 
1 42 -37 0 
1 -96 -12 0 
1 94 -80 0 
1 14 106 0 
1 45 92 0 
1 38 -32 0 
